(set-info :smt-lib-version 2.6)
(set-logic QF_S)
(set-info :source |
Generated by: Murphy Berzish, Mitja Kulczynski, Federico Mora, Florin Manea, Joel Day, Dirk Nowotka, Vijay Ganesh, Zhengyang Lu
Generated on: 2020-10-01
Description: Translated from a collection of real-world regex queries, AutomataArk, collected by Loris D’Antoni and Fang Wang: https://github.com/lorisdanto/automatark
Application: Evaluate solvers on real-world regex queries
Target solver: Z3str3RE, CVC4, OSTRICH, Z3seq, Z3str3, Z3-Trau
Publications: Berzish, M., Kulczynski, M., Mora, F., Manea, F., Day, J. D., Nowotka, D., & Ganesh, V. (2021, July). An SMT solver for regular expressions and linear arithmetic over string length. In CAV 2021.
|)
(set-info :license "https://creativecommons.org/licenses/by/4.0/")
(set-info :category "industrial")
(set-info :status sat)

(declare-const X String)
(assert (not (str.in_re X (re.++ (str.to_re "/filename=") (re.* (re.comp (str.to_re "\u{a}"))) (str.to_re ".k3g/i\u{a}")))))
(assert (not (str.in_re X (re.++ (str.to_re "/.getElement") (re.opt (str.to_re "s")) (str.to_re "By") (re.union (str.to_re "Id") (str.to_re "TagName")) (str.to_re "(") (re.* (re.union (str.to_re " ") (str.to_re "\u{9}") (str.to_re "\u{a}") (str.to_re "\u{c}") (str.to_re "\u{d}"))) (re.union (str.to_re "\u{22}") (str.to_re "'")) (str.to_re "caption") (re.union (str.to_re "\u{22}") (str.to_re "'")) (re.* (re.union (str.to_re " ") (str.to_re "\u{9}") (str.to_re "\u{a}") (str.to_re "\u{c}") (str.to_re "\u{d}"))) (str.to_re ")") (re.* re.allchar) (str.to_re "innerHTML") (re.* (re.union (str.to_re " ") (str.to_re "\u{9}") (str.to_re "\u{a}") (str.to_re "\u{c}") (str.to_re "\u{d}"))) (str.to_re "=") (re.* (re.union (str.to_re " ") (str.to_re "\u{9}") (str.to_re "\u{a}") (str.to_re "\u{c}") (str.to_re "\u{d}"))) (re.union (str.to_re "\u{22}") (str.to_re "'")) (str.to_re "<thead/sm\u{a}")))))
(assert (not (str.in_re X (re.++ (re.+ (re.++ (str.to_re "'") (re.* (re.++ (re.* (re.union (str.to_re "'") (str.to_re "\u{5c}"))) (str.to_re "\u{5c}") re.allchar)) (re.* (re.union (str.to_re "'") (str.to_re "\u{5c}"))) (str.to_re "'"))) (str.to_re "\u{a}")))))
(assert (str.in_re X (re.++ (re.opt (re.++ (re.* (re.range "0" "9")) (re.opt re.allchar) (re.opt (re.union (str.to_re "BIS") (str.to_re "TER") (str.to_re "QUATER"))))) (re.+ (re.comp (re.union (re.range "0" "9") (re.range "A" "Z") (re.range "a" "z") (str.to_re "_")))) (re.* (re.++ (re.+ (re.range "a" "z")) re.allchar)) (re.opt ((_ re.loop 5 5) (re.range "0" "9"))) re.allchar (re.* (re.++ (re.+ (re.union (re.range "a" "z") (str.to_re "'"))) re.allchar)) (str.to_re "\u{a}"))))
(assert (str.in_re X (re.++ (str.to_re "www.proventactics.com") (re.+ (re.union (str.to_re " ") (str.to_re "\u{9}") (str.to_re "\u{a}") (str.to_re "\u{c}") (str.to_re "\u{d}"))) (str.to_re "\u{a}"))))
(check-sat)

(exit)
